Automatic generation
0
Monhkorst-Pack
1 1 1
0.0 0.0 0.0
