units           metal
atom_style      atomic
boundary        p p p

read_data       harm1.lammps

pair_style      tersoff
pair_coeff 	* * si.tersoff Si

dump            1 all custom 1 XFSET id xu yu zu fx fy fz
dump_modify     1 format float "%20.15f"
run             0
