&CONTROL
   calculation      = 'scf'
   restart_mode     = 'from_scratch'
   tstress          = .true.
   tprnfor          = .true.
   pseudo_dir       = './'
   outdir           = './tmp/'
   prefix           = 'Si'           
/
&SYSTEM
   ecutwfc          = 60
   ntyp             = 1
   nat              = 2
   ibrav            = 2
   occupations      = 'fixed'
   input_dft='PBE'
   celldm(1)=10.2625
/
&ELECTRONS
   conv_thr         = 1e-08
/

ATOMIC_SPECIES
   Si 28.085 Si.pbe-n-rrkjus_psl.0.1.UPF


ATOMIC_POSITIONS (alat)
   Si   0.0000000000d0   0.0000000000d0   0.0000000000d0
   Si   0.2500000000d0   0.2500000000d0   0.2500000000d0

K_POINTS automatic
   4 4 4  0 0 0


