&CONTROL
   disk_io          = 'None'
   pseudo_dir       = '.'
/
&SYSTEM
   ecutwfc          = 45
   ecutrho          = 180
   occupations      = 'smearing'
   degauss          = 0.03
   smearing         = 'mv'
   ntyp             = 1
   nat              = 64
   ibrav            = 0
/
&ELECTRONS
   conv_thr         = 1e-08
/
&IONS
/
&CELL
/

ATOMIC_SPECIES
Au 196.966569 Au_ONCV_PBE-1.0.oncvpsp.upf

K_POINTS automatic
1 1 1  1 1 1

CELL_PARAMETERS angstrom
11.79818412000000 0.00000000000000 0.00000000000000
5.89909206000000 10.21752716644615 0.00000000000000
5.89909206000000 3.40584238881538 9.63317699513579

ATOMIC_POSITIONS angstrom
Au 0.0965928617 0.1216810875 0.2226293938 
Au 1.4597644190 0.6387744334 2.7252392266 
Au 2.9371049311 1.6504874053 4.9134104550 
Au 4.4271523373 2.5648477784 7.1403286464 
Au 1.3723813135 2.2719136802 0.0261689063 
Au 2.6437273796 3.1573090083 2.4200570975 
Au 4.4187723957 4.1415939106 4.4954943219 
Au 5.8307229446 5.2229448009 7.2443779904 
Au 3.0491170060 4.9481120588 0.1076088811 
Au 4.2188752058 5.8394475119 2.5465335483 
Au 6.0538720925 6.6860863266 4.8401655588 
Au 7.3562276545 7.7717578170 7.2917894934 
Au 4.7187828076 7.5940132657 -0.0414700135 
Au 5.8453026394 8.3267907887 2.3710231873 
Au 7.3979425070 9.2956738094 4.9778060328 
Au 8.8793174901 10.3261335635 7.4148528947 
Au 3.1212754211 -0.1401912051 -0.0312507962 
Au 4.4000588202 0.8572687963 2.4962235314 
Au 5.8002677686 1.6440666131 4.6820580620 
Au 7.3363686487 2.6200059719 7.1724822136 
Au 4.3705552191 2.5669808563 -0.0175315241 
Au 5.7102512741 3.5263874743 2.2412104721 
Au 7.1542569710 4.3307232086 4.7628885543 
Au 8.8645203168 5.1273470764 7.2339454141 
Au 5.8684599622 5.0908625294 -0.4393222807 
Au 7.1708400642 5.8705083537 2.2626821155 
Au 9.0083215319 6.6844133297 4.7415997344 
Au 10.1813408817 7.4737079351 7.1298613802 
Au 7.4105730804 7.4868374990 0.1550205274 
Au 8.7714191704 8.5236331791 2.5350312006 
Au 10.2685930071 9.3502264552 4.7349106011 
Au 11.6592030540 10.2354284128 7.0925198052 
Au 5.8175856375 0.1488503931 -0.0476830763 
Au 7.3349137677 0.9911370905 2.5089424564 
Au 8.8392326977 1.8454491085 4.7527865907 
Au 10.1281208465 2.6023596370 7.0749321251 
Au 7.6319892279 2.4981749426 -0.0800109028 
Au 8.9091827104 3.3538772566 2.4226625100 
Au 10.3482701090 4.1949510121 4.7800236849 
Au 11.6542381725 4.9038253920 7.2958884060 
Au 8.9229498944 5.1995880877 0.2622868044 
Au 10.4793782473 5.8019355272 2.2821974761 
Au 11.8918672429 6.7983551330 4.8373854831 
Au 13.1834206658 7.9230898104 7.2239586771 
Au 10.3969881727 7.8435742417 0.0161389874 
Au 12.0070980255 8.6119222849 2.2743213599 
Au 13.3375917941 9.3640297605 4.9027908025 
Au 14.7687254221 10.4338093961 7.2528947830 
Au 9.0790774712 0.1100020574 -0.1547932332 
Au 10.2059541808 0.7553165536 2.3241822442 
Au 11.7280309201 1.7636410816 4.9885575221 
Au 13.4568412853 2.6568295881 7.2354955743 
Au 10.1665594990 2.6931615876 -0.0136999452 
Au 11.7643001449 3.1102625824 2.4063623871 
Au 13.2982486382 4.3368685673 4.6249055174 
Au 14.7835936048 5.2961292265 7.1627894481 
Au 11.9243343933 4.9925698554 -0.0020801949 
Au 13.1925340150 6.0141069710 2.3747525067 
Au 14.8259623481 6.7886687659 4.8402384204 
Au 16.2460013997 7.9567725406 7.2483250028 
Au 13.5015495096 7.8230963830 0.0603214928 
Au 14.7751090845 8.5095841164 2.5017792093 
Au 16.2220844446 9.5208106857 4.9518550912 
Au 17.6891430099 10.3123459580 7.4393960409 

