&control
	disk_io = "None"
	pseudo_dir = "."
	prefix = "label"
&end
&system
	ecutwfc = 45
	ecutrho = 180
	occupations = "smearing"
	smearing = "mv"
	degauss = 0.03
	nat = 64
	ntyp = 1
	ibrav = 0
&end
&electrons
	conv_thr = 1e-08
&end

ATOMIC_SPECIES
Au  1.0   Au_ONCV_PBE-1.0.oncvpsp.upf

K_POINTS automatic
1 1 1 1 1 1
CELL_PARAMETERS angstrom
11.7981841200000002  0.0000000000000000  0.0000000000000000
5.8990920600000010  10.2175271664461516  0.0000000000000000
5.8990920600000010  3.4058423888153846  9.6331769951357913

ATOMIC_POSITIONS angstrom
Au    0.0115896210126113  -0.1033532603777730  0.1997595239431226
Au    1.4158265451407177  0.6210560008786098  2.5383177499754335
Au    2.9753180533146284  1.4936550205523342  4.9389231646703760
Au    4.5168575509467841  2.6930079761819621  7.2428900702129457
Au    1.4249411360147275  2.6154227145429481  0.2785668344083390
Au    3.0264755935858423  3.3024280338244716  2.4712811782263633
Au    4.3537775310109321  4.3353501635834082  4.8002458886862582
Au    6.2000318474446194  5.2404045097014516  7.3963372804138023
Au    2.9575983885598069  5.0458911490131850  -0.1595860322409762
Au    4.1503012439738418  5.9681074258147335  2.1359510031135240
Au    5.8478475848066918  6.7734142313143826  4.8182159667282818
Au    7.3536339337258534  7.7747781395960347  7.2231644251652778
Au    4.4870878214422500  7.7544263373937028  -0.3615753215965532
Au    5.7475785341648082  8.5914317107441622  2.5237061214219185
Au    7.0366580737293551  9.2704093111781898  4.7905519373245058
Au    8.8434044480150202  10.3813478406203608  7.2074435588410672
Au    2.8411508120800413  0.0616482424739164  -0.0345164325219278
Au    4.6520612575836005  0.8986479191155886  2.4369203120101433
Au    5.9094447258423459  1.7955331832760648  4.7314184706807003
Au    7.4945380180311600  2.7844985804288314  7.1736215052272065
Au    4.6227029076266497  2.3798127900156882  -0.0639027257342713
Au    5.7050203499099865  3.5799670176013270  2.5476788685221741
Au    7.3445481287821233  4.3419631208354579  4.6270098737326215
Au    8.8379027219318598  5.2105905336981131  7.4343865411030521
Au    5.8371073485689937  5.2429387991730483  -0.0709972385926486
Au    7.1343360658435460  6.0138479780372522  2.3568945078744235
Au    9.1087769912789174  6.7391888619530658  4.8565222230305443
Au    10.0445098069301153  7.6565539023446991  7.1052581504609753
Au    7.5050274541026631  7.7936146937244013  -0.1988217488370626
Au    9.0549749467951131  8.4821086563807686  2.4176090582700924
Au    10.4252356108266078  9.3498032128282667  4.9724268555960176
Au    12.0264209118735703  10.1561063643825680  7.1127576950427107
Au    5.9216031193588226  -0.0357896529795126  0.0473059589174774
Au    7.5627467830323329  0.8804271934779877  2.4500136601409319
Au    8.7062472038537848  1.6889267692260297  4.8857801877617950
Au    10.2985399157575515  2.4702015204885535  7.1184955338904032
Au    7.3652414411308165  2.7209988965928700  -0.0324565779697627
Au    8.7770989486927995  3.3042787308252208  2.3604776877085776
Au    10.3724605446607896  3.8969067212406334  4.9326180260360690
Au    11.7532532256696705  5.1184434912673487  7.2776586297538390
Au    8.6757858592509134  5.0853880164947949  0.1593032899253897
Au    10.4626963592192830  5.9236052183814154  2.4618664944374049
Au    12.0135758351729862  6.7742796531532159  4.7533052177769450
Au    13.3626284834840927  7.7592219167359087  7.2325116448299660
Au    10.4076960501966642  7.7522920726005982  0.0874213258555372
Au    11.7637242119437726  8.5680777662589858  2.4134111180395208
Au    13.4871811907307162  9.2253254607169932  4.7226220844702640
Au    14.9013526539118306  10.3128574560659274  7.2878514953706102
Au    8.7785629397629492  -0.0102092269353985  -0.2333487525376215
Au    10.2785497541948487  0.8088572493856526  2.3592881426417645
Au    11.9159784949129790  1.5362983069336786  4.7792562465088970
Au    13.4140900017547047  2.6718317702066714  7.1390200124409580
Au    10.1011696985180564  2.5125819267816052  -0.2391127307826537
Au    11.6038785756371166  3.4429964918171776  2.5499483999269588
Au    13.3522600374799278  4.5019472247692676  4.9914684735042112
Au    14.5541910082137651  5.0963480042106424  7.2810715980033782
Au    11.8308371204102762  5.0608959603775681  0.1226409896072039
Au    13.2454266015849402  5.9328812145381900  2.4903690997460735
Au    14.9084923718317981  6.6647670760089044  4.7833256118884950
Au    16.2499235312488999  7.5215549896598777  7.0293892833896372
Au    13.0997047897455765  7.5968507752614736  0.0567740177583393
Au    14.5554573407032244  8.3161841339131541  2.1236222287448703
Au    16.1634938809258983  9.4145080692618599  4.7230718384123156
Au    17.5363038220823420  10.2025329687096633  7.6328183819069562
