
&inputph
    prefix           = 'SrTiO3'
    outdir           = './out/'
    fildyn           = "harmonic_dyn"
    amass(1)         = 15.9994
    amass(2)         = 87.62
    amass(3)         = 47.867
    ldisp            = .true.
    nq1              = 2
    nq2              = 2
    nq3              = 2
    epsil            = .true.
    tr2_ph           = 1.0d-18
&end
