&CONTROL
  calculation = 'scf'
  restart_mode     = 'from_scratch'
  etot_conv_thr =   5.0000000000d-05
  forc_conv_thr =   1.0000000000d-04
  outdir = './out/'
  prefix = 'SrTiO3'
  pseudo_dir = './pseudo/'
  tprnfor = .true.
  tstress = .true.
  verbosity = 'high'
/
&SYSTEM
  degauss =   1.4699723600d-02
  ecutrho =   4.0000000000d+02   
  ecutwfc =   1.0000000000d+02      

  ibrav = 0
  nat = 5
  nosym = .false.
  ntyp = 3
/
&ELECTRONS
  conv_thr =   1.0000000000d-09
  electron_maxstep = 80
  mixing_beta =   4.0000000000d-01
/
ATOMIC_SPECIES
O      15.9994 O.pbesol-n-kjpaw_psl.0.1.UPF
Sr     87.62 sr_pbesol_v1.uspp.F.UPF
Ti     47.867 ti_pbesol_v1.4.uspp.F.UPF
ATOMIC_POSITIONS crystal
Sr           0.0000000000       0.0000000000       0.0000000000 
Ti           0.5000000000       0.5000000000       0.5000000000 
O            0.5000000000       0.0000000000       0.5000000000 
O            0.5000000000       0.5000000000       0.0000000000 
O            0.0000000000       0.5000000000       0.5000000000 
K_POINTS automatic
8 8 8 0 0 0
CELL_PARAMETERS angstrom
      3.9451300000       0.0000000000       0.0000000000
      0.0000000000       3.9451300000       0.0000000000
      0.0000000000       0.0000000000       3.9451300000
