 &input
zasr='simple',
fildyn="harmonic_dyn",
flfrc='SrTiO3222.fc'
/
