 &input
   fildyn  =  'dyn_hessian_',  
   zasr    =  'simple',      
   flfrc   =  'hessian.fc'     
 /
